proyfinal/src/viki/013/andrea/andrea-localstore/experimentInOfficeAgust.take6/worker_6/6500acbf-9f29-4b72-bf68-3756ae1f16b2.als.cnf.out
Reading from standard input... Use '--help' for help.
============================[ Problem Statistics ]=============================
|                                                                             |
|  Number of variables:         87638                                         |
|  Number of clauses:          161767                                         |
|  Parse time:                   0.04 s                                       |
|                                                                             |
============================[ Search Statistics ]==============================
| Conflicts |          ORIGINAL         |          LEARNT          | Progress |
|           |    Vars  Clauses Literals |    Limit  Clauses Lit/Cl |          |
===============================================================================
|       100 |   62683   106260   265639 |    38962      100     14 | 28.475 % |
|       250 |   62683   106260   265639 |    42858      250     74 | 28.475 % |
|       475 |   62683   106260   265639 |    47144      475     95 | 28.475 % |
|       812 |   62683   106260   265639 |    51858      812     94 | 28.475 % |
|      1318 |   62682   106216   265549 |    57044     1317     90 | 28.476 % |
|      2077 |   62682   106216   265549 |    62748     2076     96 | 28.476 % |
|      3216 |   62682   106216   265549 |    69023     3215    130 | 28.476 % |
|      4924 |   62659   106121   265332 |    75925     4730    119 | 28.503 % |
|      7486 |   47835    62413   158148 |    83518     6904     95 | 45.418 % |
===============================================================================
restarts              : 47
conflicts             : 11244          (6660 /sec)
decisions             : 36107          (0.00 % random) (21387 /sec)
propagations          : 17322850       (10260577 /sec)
conflict literals     : 878690         (40.87 % deleted)
Memory used           : 30.54 MB
CPU time              : 1.68829 s

UNSATISFIABLE
